SCIP Status        : solving was interrupted [time limit reached]
Total Time         :    3600.00
  solving          :    3600.00
  presolving       :       0.46 (included in solving)
  reading          :       0.00
  copying          :       1.32 (36 #copies) (minimal 0.00, maximal 0.10, average 0.04)
Original Problem   :
  Problem name     : bbbenchmark/pw05_100.1.cut
  Variables        : 101 (100 binary, 0 integer, 0 implicit integer, 1 continuous)
  Constraints      : 1 initial, 1 maximal
  Objective        : minimize, 1 non-zeros (abs.min = 1, abs.max = 1)
Presolved Problem  :
  Problem name     : t_bbbenchmark/pw05_100.1.cut
  Variables        : 1757 (100 binary, 0 integer, 1640 implicit integer, 17 continuous)
  Constraints      : 1689 initial, 10523 maximal
  Objective        : minimize, 1 non-zeros (abs.min = 1, abs.max = 1)
  Nonzeros         : 8427 constraint, 202 clique table
Presolvers         :   ExecTime  SetupTime  Calls  FixedVars   AggrVars   ChgTypes  ChgBounds   AddHoles    DelCons    AddCons   ChgSides   ChgCoefs
  boundshift       :       0.00       0.00      0          0          0          0          0          0          0          0          0          0
  convertinttobin  :       0.00       0.00      0          0          0          0          0          0          0          0          0          0
  domcol           :       0.00       0.00      1          0          0          0          0          0          0          0          0          0
  dualagg          :       0.00       0.00      0          0          0          0          0          0          0          0          0          0
  dualcomp         :       0.00       0.00      1          0          0          0          0          0          0          0          0          0
  dualinfer        :       0.00       0.00      0          0          0          0          0          0          0          0          0          0
  dualsparsify     :       0.00       0.00      1          0          0          0          0          0          0          0          0          0
  gateextraction   :       0.00       0.00      0          0          0          0          0          0          0          0          0          0
  implics          :       0.00       0.00      2          0          0          0          0          0          0          0          0          0
  inttobinary      :       0.00       0.00      0          0          0          0          0          0          0          0          0          0
  qpkktref         :       0.00       0.00      0          0          0          0          0          0          0          0          0          0
  redvub           :       0.00       0.00      0          0          0          0          0          0          0          0          0          0
  sparsify         :       0.00       0.00      1          0          0          0          0          0          0          0          0          0
  stuffing         :       0.00       0.00      0          0          0          0          0          0          0          0          0          0
  trivial          :       0.00       0.00      4          0          0          0          0          0          0          0          0          0
  tworowbnd        :       0.00       0.00      0          0          0          0          0          0          0          0          0          0
  dualfix          :       0.00       0.00      4          0          0          0          0          0          0          0          0          0
  genvbounds       :       0.00       0.00      0          0          0          0          0          0          0          0          0          0
  probing          :       0.26       0.00      1          0          0          0          0          0          0          0          0          0
  pseudoobj        :       0.00       0.00      1          0          0          0          1          0          0          0          0          0
  symmetry         :       0.00       0.00      0          0          0          0          0          0          0          0          0          0
  vbounds          :       0.00       0.00      1          0          0          0          0          0          0          0          0          0
  varbound         :       0.00       0.00      2          0          0          0          0          0          0          0          0          0
  and              :       0.01       0.01      2          0          0          0          0          0          0          0          0          0
  linear           :       0.00       0.00      2          0          0          0          0          0          0          0          0          0
  logicor          :       0.00       0.00      0          0          0          0          0          0          0          0          0          0
  bounddisjunction :       0.00       0.00      0          0          0          0          0          0          0          0          0          0
  nonlinear        :       0.18       0.01      5          0          0          0          1          0          0       1688          0          0
  benders          :       0.00       0.00      0          0          0          0          0          0          0          0          0          0
  components       :       0.00       0.00      1          0          0          0          0          0          0          0          0          0
  root node        :          -          -      -          0          -          -         13          -          -          -          -          -
Constraints        :     Number  MaxNumber  #Separate #Propagate    #EnfoLP    #EnfoRelax  #EnfoPS    #Check   #ResProp    Cutoffs    DomReds       Cuts    Applied      Conss   Children
  benderslp        :          0          0          0          0      35030          0          0       7510          0          0          0          0          0          0          0
  integral         :          0          0          0          0      35030          0          0       7510          0          0        264          0          0        251      69692
  varbound         :         16         16         64     370986          6          0          0         58          0          0      21808          0          0          0          0
  and              :       1640       1640      48489     418296          8          0          0         45     368577          2     291459       7192       6372          0          0
  linear           :         33+        54         64     418343          8          0          0         43        535          7     101446          0          0          0          0
  logicor          :          0+      8656          0      64127          0          0          0          0         94        258         19          0          0          0          0
  bounddisjunction :          0+       351          0      23333          0          0          0          0          1          3          1          0          0          0          0
  benders          :          0          0          0          0          8          0          0         34          0          0          0          0          0          0          0
  countsols        :          0          0          0          0          8          0          0         34          0          0          0          0          0          0          0
  components       :          0          0          0          0          0          0          0          0          0          0          0          0          0          0          0
Constraint Timings :  TotalTime  SetupTime   Separate  Propagate     EnfoLP     EnfoPS     EnfoRelax   Check    ResProp    SB-Prop
  benderslp        :       0.09       0.00       0.00       0.00       0.07       0.00       0.00       0.02       0.00       0.00
  integral         :      39.97       0.00       0.00       0.00      39.96       0.00       0.00       0.01       0.00       0.00
  varbound         :       0.41       0.00       0.00       0.41       0.00       0.00       0.00       0.00       0.00       0.00
  and              :      50.45       0.01      32.38      17.38       0.00       0.00       0.00       0.02       0.36       0.30
  linear           :       2.21       0.00       0.01       2.14       0.00       0.00       0.00       0.02       0.00       0.04
  logicor          :       4.57       0.00       0.00       4.55       0.00       0.00       0.00       0.00       0.00       0.02
  bounddisjunction :       0.50       0.00       0.00       0.50       0.00       0.00       0.00       0.00       0.00       0.00
  benders          :       0.00       0.00       0.00       0.00       0.00       0.00       0.00       0.00       0.00       0.00
  countsols        :       0.00       0.00       0.00       0.00       0.00       0.00       0.00       0.00       0.00       0.00
  components       :       0.13       0.00       0.00       0.13       0.00       0.00       0.00       0.00       0.00       0.00
Propagators        : #Propagate   #ResProp    Cutoffs    DomReds
  dualfix          :          4          0          0          0
  genvbounds       :          0          0          0          0
  nlobbt           :          0          0          0          0
  obbt             :          0          0          0          0
  probing          :          0          0          0          0
  pseudoobj        :     147686          0          0         33
  redcost          :      90156          0          0      23038
  rootredcost      :         14          0          0          0
  symmetry         :          0          0          0          0
  vbounds          :      51908          0          0          0
Propagator Timings :  TotalTime  SetupTime   Presolve  Propagate    ResProp    SB-Prop
  dualfix          :       0.00       0.00       0.00       0.00       0.00       0.00
  genvbounds       :       0.27       0.00       0.00       0.27       0.00       0.00
  nlobbt           :       0.00       0.00       0.00       0.00       0.00       0.00
  obbt             :       0.00       0.00       0.00       0.00       0.00       0.00
  probing          :       0.26       0.00       0.26       0.00       0.00       0.00
  pseudoobj        :       0.47       0.00       0.00       0.46       0.00       0.01
  redcost          :       5.24       0.00       0.00       5.24       0.00       0.00
  rootredcost      :       0.28       0.00       0.00       0.28       0.00       0.00
  symmetry         :       0.23       0.00       0.00       0.23       0.00       0.00
  vbounds          :       0.31       0.00       0.00       0.31       0.00       0.00
Conflict Analysis  :       Time      Calls    Success    DomReds  Conflicts   Literals    Reconvs ReconvLits   Dualrays   Nonzeros   LP Iters   (pool size: [10000,10000])
  propagation      :       0.00        265        204          -        321       67.0          0        0.0          -          -          -
  infeasible LP    :       0.05         24         24          -       1118      151.3          0        0.0         60      150.4          0
  bound exceed. LP :      17.50       4070       3841          -     106663      106.5          1       47.0          0        0.0      45708
  strong branching :       0.00          0          0          -          0        0.0          0        0.0          -          -          0
  pseudo solution  :       0.00          0          0          -          0        0.0          0        0.0          -          -          -
  applied globally :       0.44          -          -          0      23448      117.5          -          -         60          -          -
  applied locally  :          -          -          -          0          0        0.0          -          -          0          -          -
Separators         :   ExecTime  SetupTime      Calls  RootCalls    Cutoffs    DomReds  FoundCuts ViaPoolAdd  DirectAdd    Applied ViaPoolApp  DirectApp      Conss
  cut pool         :       6.59          -      22326         86          -          -      44823    1659535          -          -          -          -          -    (maximal pool size:       2896)
  aggregation      :     513.02       0.00       8874         64          0          0        490        230          0         73         73          0          0
  > cmir           :          -          -          -          -          -          -          -        217          0         66         66          0          -
  > flowcover      :          -          -          -          -          -          -          -         13          0          7          7          0          -
  > knapsackcover  :          -          -          -          -          -          -          -          0          0          0          0          0          -
  cgmip            :       0.00       0.00          0          0          0          0          0          0          0          0          0          0          0
  clique           :       0.00       0.00         64         64          0          0          0          0          0          0          0          0          0
  closecuts        :       0.00       0.00          0          0          0          0          0          0          0          0          0          0          0
  convexproj       :       0.00       0.00          0          0          0          0          0          0          0          0          0          0          0
  disjunctive      :       0.00       0.00          0          0          0          0          0          0          0          0          0          0          0
  eccuts           :       0.00       0.00          0          0          0          0          0          0          0          0          0          0          0
  gauge            :       0.00       0.00          0          0          0          0          0          0          0          0          0          0          0
  gomory           :       0.00       0.00          0          0          0          0          0          0          0          0          0          0          0
  > gomorymi       :          -          -          -          -          -          -          -          0          0          0          0          0          -
  > strongcg       :          -          -          -          -          -          -          -          0          0          0          0          0          -
  impliedbounds    :       0.53       0.00       8874         64          0          0         48         15          0         10         10          0          0
  interlattice     :       0.00       0.00          0          0          0          0          0          0          0          0          0          0          0
  interminor       :       0.00       0.00          0          0          0          0          0          0          0          0          0          0          0
  intersub         :       0.60       0.00         32         32          0          0         30          0         30         30          0         30          0
  intobj           :       0.00       0.00          0          0          0          0          0          0          0          0          0          0          0
  mcf              :       0.00       0.00          1          1          0          0          0          0          0          0          0          0          0
  minor            :       0.02       0.00          0          0          0          0          0          0          0          0          0          0          0
  mixing           :       0.05       0.00       8874         64          0          0          0          0          0          0          0          0          0
  oddcycle         :       0.00       0.00          0          0          0          0          0          0          0          0          0          0          0
  rapidlearning    :       0.00       0.00          0          0          0          0          0          0          0          0          0          0          0
  rlt              :       0.00       0.00         10         10          0          0          0          0          0          0          0          0          0
  zerohalf         :      79.19       0.00       7662         20          0          0      44285    1659290          0     151215     151215          0          0
Cutselectors       :   ExecTime  SetupTime      Calls  RootCalls   Selected     Forced   Filtered  RootSelec   RootForc   RootFilt 
  hybrid           :       1.71       0.00      15399         62     157700          0    1509057        220          0          2
Pricers            :   ExecTime  SetupTime      Calls       Vars
  problem variables:       0.00          -          0          0
Branching Rules    :   ExecTime  SetupTime   BranchLP  BranchExt   BranchPS    Cutoffs    DomReds       Cuts      Conss   Children
  allfullstrong    :       0.00       0.00          0          0          0          0          0          0          0          0
  cloud            :       0.00       0.00          0          0          0          0          0          0          0          0
  distribution     :       0.00       0.00          0          0          0          0          0          0          0          0
  fullstrong       :       0.00       0.00          0          0          0          0          0          0          0          0
  inference        :       0.00       0.00          0          0          0          0          0          0          0          0
  leastinf         :       0.00       0.00          0          0          0          0          0          0          0          0
  lookahead        :       0.00       0.00          0          0          0          0          0          0          0          0
  mostinf          :       0.00       0.00          0          0          0          0          0          0          0          0
  multaggr         :       0.00       0.00          0          0          0          0          0          0          0          0
  nodereopt        :       0.00       0.00          0          0          0          0          0          0          0          0
  pscost           :       0.00       0.00          0          0          0          0          0          0          0          0
  random           :       0.00       0.00          0          0          0          0          0          0          0          0
  relpscost        :      39.85       0.00      35022          0          0          0        264          0        252      69692
  vanillafullstrong:       0.00       0.00          0          0          0          0          0          0          0          0
Primal Heuristics  :   ExecTime  SetupTime      Calls      Found       Best
  LP solutions     :       0.00          -          -          8          8
  relax solutions  :       0.00          -          -          0          0
  pseudo solutions :       0.00          -          -          0          0
  strong branching :       0.01          -          -          0          0
  actconsdiving    :       0.00       0.00          0          0          0
  adaptivediving   :       4.54       0.00         26          0          0
  alns             :       3.35       0.00         22         13         12
  bound            :       0.00       0.00          0          0          0
  clique           :       0.01       0.00          1          0          0
  coefdiving       :       0.00       0.00          0          0          0
  completesol      :       0.00       0.00          0          0          0
  conflictdiving   :      88.50       0.00        555          0          0
  crossover        :       0.14       0.00          2          0          0
  dins             :       0.00       0.00          0          0          0
  distributiondivin:      66.76       0.00        260          0          0
  dps              :       0.00       0.00          0          0          0
  dualval          :       0.00       0.00          0          0          0
  farkasdiving     :       0.01       0.00          0          0          0
  feaspump         :       0.55       0.00          1          1          1
  fixandinfer      :       0.00       0.00          0          0          0
  fracdiving       :      62.42       0.00        310          0          0
  gins             :       0.00       0.00          0          0          0
  guideddiving     :      60.47       0.00        330          0          0
  indicator        :       0.08       0.00          0          0          0
  indicatordiving  :       0.00       0.00          0          0          0
  intdiving        :       0.00       0.00          0          0          0
  intshifting      :       0.70       0.00         50          0          0
  linesearchdiving :      53.99       0.00        335          0          0
  localbranching   :       0.00       0.00          0          0          0
  locks            :       0.01       0.00          1          0          0
  lpface           :       0.05       0.00          0          0          0
  mpec             :     464.45       0.00         11          0          0
  multistart       :       0.00       0.00          0          0          0
  mutation         :       0.00       0.00          0          0          0
  nlpdiving        :      25.06       0.00          3          0          0
  objpscostdiving  :      60.85       0.00         34          8          0
  octane           :       0.00       0.00          0          0          0
  ofins            :       0.05       0.00          0          0          0
  oneopt           :       0.06       0.00         19          0          0
  padm             :       0.00       0.00          0          0          0
  proximity        :       0.00       0.00          0          0          0
  pscostdiving     :      57.43       0.00        277          1          1
  randrounding     :       0.61       0.00       7472          0          0
  rens             :       0.00       0.00          0          0          0
  reoptsols        :       0.00       0.00          0          0          0
  repair           :       0.00       0.00          0          0          0
  rins             :       1.36       0.00         11          0          0
  rootsoldiving    :      38.72       0.00         24          1          0
  rounding         :       0.91       0.00       3010          0          0
  shiftandpropagate:       0.00       0.00          0          0          0
  shifting         :      38.73       0.00       8203          4          3
  simplerounding   :       0.06       0.00          0          0          0
  subnlp           :      63.62       0.00          0          0          0
  trivial          :       0.01       0.00          2          2          2
  trivialnegation  :       0.00       0.00          0          0          0
  trustregion      :       0.00       0.00          0          0          0
  trysol           :       0.06       0.00          0          0          0
  twoopt           :       0.00       0.00          0          0          0
  undercover       :       0.56       0.00          1          1          1
  vbounds          :       0.00       0.00          0          0          0
  veclendiving     :      54.89       0.00        356          0          0
  zeroobj          :       0.00       0.00          0          0          0
  zirounding       :       0.38       0.00       1000          0          0
  other solutions  :          -          -          -          0          -
Diving (single)    :      Calls      Nodes   LP Iters Backtracks  Conflicts   MinDepth   MaxDepth   AvgDepth  RoundSols  NLeafSols  MinSolDpt  MaxSolDpt  AvgSolDpt
  actconsdiving    :          0          -          -          -          -          -          -          -          -          -          -          -          -
  coefdiving       :          0          -          -          -          -          -          -          -          -          -          -          -          -
  conflictdiving   :        555      22172     636664        592      35544         45         81       60.5          0          -          -          -          -
  distributiondivin:        260      10024     418260        297       8957         44         68       56.5          0          -          -          -          -
  farkasdiving     :          0          -          -          -          -          -          -          -          -          -          -          -          -
  fracdiving       :        310      60864     416157         80       1420         61        648      216.0          0          -          -          -          -
  guideddiving     :        330      54331     414952         60       1902         62        498      184.8          0          -          -          -          -
  indicatordiving  :          0          -          -          -          -          -          -          -          -          -          -          -          -
  linesearchdiving :        335      15256     415588        342      18536         46         91       64.7          0          -          -          -          -
  pscostdiving     :        277      11802     432404        282      11102         51         78       61.0          0          1         78         78       78.0
  veclendiving     :        356      15143     415259        362      26587         50         82       61.7          0          -          -          -          -
Diving (adaptive)  :      Calls      Nodes   LP Iters Backtracks  Conflicts   MinDepth   MaxDepth   AvgDepth  RoundSols  NLeafSols  MinSolDpt  MaxSolDpt  AvgSolDpt
  actconsdiving    :          4        175       6068          4        133         52         63       58.0          0          -          -          -          -
  coefdiving       :          7        329       8160          4        442         53         92       65.1          0          -          -          -          -
  conflictdiving   :          0          -          -          -          -          -          -          -          -          -          -          -          -
  distributiondivin:          0          -          -          -          -          -          -          -          -          -          -          -          -
  farkasdiving     :          0          -          -          -          -          -          -          -          -          -          -          -          -
  fracdiving       :          0          -          -          -          -          -          -          -          -          -          -          -          -
  guideddiving     :          3        164       2389          1          9         63         95       81.3          0          -          -          -          -
  indicatordiving  :          0          -          -          -          -          -          -          -          -          -          -          -          -
  linesearchdiving :          4        211       6056          3        231         50         78       67.2          0          -          -          -          -
  pscostdiving     :          3        123       4639          3        115         63         64       63.3          0          -          -          -          -
  veclendiving     :          5        207       6846          4        344         54         61       57.0          0          -          -          -          -
Neighborhoods      :      Calls  SetupTime  SolveTime SolveNodes       Sols       Best       Exp3  EpsGreedy        UCB TgtFixRate  Opt  Inf Node Stal  Sol  Usr Othr Actv
  rens             :          2       0.16       0.02          2          0          0    0.00000   -1.00000    0.54862      0.550    0    2    0    0    0    0    0    1
  rins             :          2       0.17       0.10         83          0          0    0.00000   -1.00000    0.47458      0.850    0    1    0    1    0    0    0    1
  mutation         :          3       0.26       0.65        391          3          3    0.00000   -1.00000    0.50239      0.662    0    1    0    1    1    0    0    1
  localbranching   :          2       0.15       0.08         79          0          0    0.00000   -1.00000    0.47458      0.850    0    1    0    1    0    0    0    1
  crossover        :          1       0.03       0.01         17          0          0    0.00000   -1.00000    0.55383      0.700    0    1    0    0    0    0    0    1
  proximity        :          2       0.05       0.29        199          2          1    0.00000   -1.00000    0.49919      0.850    1    0    0    1    0    0    0    1
  zeroobjective    :          2       0.15       0.06         76          0          0    0.00000   -1.00000    0.47357      0.850    0    1    0    1    0    0    0    1
  dins             :          8       0.45       0.52        444          8          8    0.00000   -1.00000    0.55830      0.836    0    0    0    6    2    0    0    1
  trustregion      :          0       0.00       0.00          0          0          0    0.00000   -1.00000    1.00000      0.900    0    0    0    0    0    0    0    0
Expressions        :   #IntEval  IntEvalTi   #RevProp  RevPropTi    DomReds    Cutoffs  #Estimate  EstimTime  Branching  #Simplify SimplifyTi Simplified
  pow              :          0       0.00          0       0.00          0          0          0       0.00          0          0       0.00          0
  prod             :       9900       0.01          0       0.00          0          0          0       0.00          0       6590       0.02          0
  sum              :          8       0.00          2       0.00          0          0          0       0.00          0          3       0.04          2
  var              :       6080       0.01          0       0.00          0          0          0       0.00          0      15139       0.00          0
  varidx           :          0       0.00          0       0.00          0          0          0       0.00          0          0       0.00          0
LP                 :       Time      Calls Iterations  Iter/call   Iter/sec  Time-0-It Calls-0-It    ItLimit
  primal LP        :     112.41       7422          0       0.00       0.00     112.38       7422
  dual LP          :    1565.68      72327    8035812     118.77    5132.47       2.28       4669
  lex dual LP      :       0.00          0          0       0.00          -
  barrier LP       :       0.00          0          0       0.00          -       0.00          0
  resolve instable :       0.00          0          0       0.00          -
  diving/probing LP:     477.86      11807    3644514     308.67    7626.74
  strong branching :      26.52       1403     194868     138.89    7347.96          -          -         69
    (at root node) :          -         19       4491     236.37          -
  conflict analysis:       7.91       4620      45708       9.89    5778.51
NLP relaxation     :
  solve time       :      24.99 (9 calls)
  convexity        :  nonconvex (49 linear rows, 0 convex ineq., 0 nonconvex ineq., 1640 nonlinear eq. or two-sided ineq.)
NLP Solvers        :  #Problems  ProblemTi    #Solves  SolveTime      #Iter  Time/Iter      #Okay #TimeLimit #IterLimit #LObjLimit #Interrupt  #NumError #EvalError  #OutOfMem #LicenseEr #OtherTerm   #GlobOpt    #LocOpt  #Feasible #LocInfeas #GlobInfea #Unbounded   #Unknown
  ipopt            :         12       3.53         30     494.03       1921       0.26         27          0          3          0          0          0          0          0          0          0          0          7          1         18          0          0          4
B&B Tree           :
  number of runs   :          1
  nodes            :      52108 (34846 internal, 17262 leaves)
  feasible leaves  :          8
  infeas. leaves   :          9
  objective leaves :      17245
  nodes (total)    :      52108 (34846 internal, 17262 leaves)
  nodes left       :      17400
  max depth        :         56
  max depth (total):         56
  backtracks       :      12417 (23.8%)
  early backtracks :          0 (0.0%)
  nodes exc. ref.  :          0 (0.0%)
  delayed cutoffs  :          1
  repropagations   :       1549 (232 domain reductions, 0 cutoffs)
  avg switch length:       6.39
  switching time   :     126.01
Estim. Tree Size   :     104586
Estimation Tree    : 69693 nodes (52293 visited, 34846 internal, 17447 leaves, 17400 open), weight: 0.0000 completed 0.0793
Estimations        :      estim      value      trend resolution     smooth
  wbe              : 15345176816035          -          -          -          -
  tree-profile     :         -1          -          -          -          -
  gap              :     546950    0.68290    0.00004         32     578989
  tree-weight      :     104586    0.00000    0.00000         32      98443
  leaf-frequency   :     104586    0.33363   -0.00035         32     113270
  ssg              :    1504372    0.87478   -0.00004         32    1654017
  open-nodes       :     104586 17400.00000   55.97924         32      98443
Root Node          :
  First LP value   : -5.47070707070708e+00
  First LP Iters   :       1636 (11685.71 Iter/sec)
  First LP Time    :       0.14
  Final Dual Bound : -5.24997431839276e+00
  Final Root Iters :       3345
  Root LP Estimate : -1.82553185757906e+00
Solution           :
  Solutions found  :         39 (28 improvements)
  First Solution   : +1.00000000000000e+05   (in run 1, after 0 nodes, 0.06 seconds, depth 0, found by <trivial>)
  Gap First Sol.   :   infinite
  Gap Last Sol.    :      50.05 %
  Primal Bound     : -3.16888888888889e+00   (in run 1, after 31200 nodes, 1757.38 seconds, depth 40, found by <alns>)
  Dual Bound       : -4.64032753427723e+00
  Gap              :      46.43 %
Integrals          :      Total       Avg%
  primal-dual      :  126216.63      35.06
  primal-ref       :          -          - (not evaluated)
  dual-ref         :          -          - (not evaluated)
